(set-info :smt-lib-version 2.6)
(set-logic LRA)
(set-info :source |
   Monniaux, David; Quantifier Elimination by Lazy Model Enumeration, CAV 2010
|)
(set-info :category "random")
; ./Mjollnir_examples/B5/formula_251.m
(set-info :status unsat)
(assert
 (forall ((|v17:0| Real) )(forall ((|v16:1| Real) )(forall ((|v15:2| Real) )(forall ((|v14:3| Real) )(forall ((|v13:4| Real) )(forall ((|v12:5| Real) )(exists ((|v11:6| Real) )(exists ((|v10:7| Real) )(exists ((|v9:8| Real) )(exists ((|v8:9| Real) )(exists ((|v7:10| Real) )(exists ((|v6:11| Real) )(forall ((|v5:12| Real) )(forall ((|v4:13| Real) )(forall ((|v3:14| Real) )(forall ((|v2:15| Real) )(forall ((|v1:16| Real) )(forall ((|v0:17| Real) )(let ((?x113 (- 16)))
(let ((?x608 (+ (+ (* 17 |v1:16|) (* (- 8) |v13:4|)) (* 10 |v2:15|))))
(let ((?x14 5))
(let ((?x603 (+ (+ (+ (* 8 |v8:9|) |v6:11|) (* (- 10) |v3:14|)) (* 16 |v7:10|))))
(let ((?x205 9))
(let ((?x273 (- 14)))
(let ((?x498 (* ?x273 |v16:1|)))
(let ((?x10 17))
(let ((?x427 (* ?x10 |v13:4|)))
(let (($x596 (<= (+ (+ (+ (* (- 15) |v13:4|) (* ?x14 |v13:4|)) ?x427) ?x498) ?x205)))
(let ((?x99 2))
(let ((?x588 (+ (+ (* (- 7) |v14:3|) (* (- 11) |v9:8|)) (* (- 8) |v7:10|))))
(let (($x613 (and (or (<= (+ ?x588 (* 16 |v13:4|)) ?x99) $x596) (and (<= ?x603 ?x14) (<= (+ ?x608 (* 6 |v14:3|)) ?x113)))))
(let ((?x69 10))
(let ((?x62 11))
(let ((?x346 (* ?x62 |v10:7|)))
(let ((?x581 (+ (+ (+ (* (- 15) |v3:14|) (* (- 9) |v15:2|)) ?x346) (* (- 1) |v9:8|))))
(let ((?x196 3))
(let ((?x573 (+ (+ (* (- 3) |v7:10|) (* ?x14 |v12:5|)) (* (- 2) |v8:9|))))
(let ((?x80 14))
(let ((?x565 (+ (+ (* (- 13) |v16:1|) (* (- 12) |v15:2|)) (* 8 |v4:13|))))
(let ((?x65 16))
(let ((?x558 (+ (+ (* ?x80 |v14:3|) (* (- 3) |v10:7|)) (* (- 4) |v5:12|))))
(let (($x569 (or (<= (+ ?x558 (* (- 4) |v12:5|)) ?x65) (<= (+ ?x565 (* ?x62 |v1:16|)) ?x80))))
(let (($x584 (and $x569 (or (<= (+ ?x573 (* (- 6) |v15:2|)) ?x196) (<= ?x581 ?x69)))))
(let ((?x547 (+ (+ (* (- 4) |v6:11|) (* ?x205 |v4:13|)) (* 20 |v16:1|))))
(let ((?x88 (- 2)))
(let ((?x149 4))
(let ((?x537 (* ?x149 |v7:10|)))
(let ((?x542 (+ (+ (+ ?x537 (* (- 12) |v4:13|)) ?x537) (* (- 18) |v2:15|))))
(let ((?x19 (- 20)))
(let ((?x222 (* ?x99 |v9:8|)))
(let (($x536 (<= (+ (+ (+ (* ?x99 |v5:12|) (* ?x99 |v15:2|)) (* ?x14 |v2:15|)) ?x222) ?x19)))
(let (($x552 (and $x536 (and (<= ?x542 ?x88) (<= (+ ?x547 (* 19 |v3:14|)) ?x69)))))
(let ((?x119 (- 5)))
(let ((?x524 (+ (+ (* (- 13) |v0:17|) (* 7 |v12:5|)) (* ?x10 |v16:1|))))
(let ((?x32 (- 4)))
(let ((?x517 (* ?x32 |v6:11|)))
(let ((?x516 (+ (+ (* (- 8) |v13:4|) (* ?x14 |v12:5|)) (* 20 |v12:5|))))
(let (($x528 (or (<= (+ ?x516 ?x517) ?x99) (<= (+ ?x524 (* 15 |v3:14|)) ?x119))))
(let ((?x185 (* ?x149 |v2:15|)))
(let ((?x510 (+ (+ (+ (* 19 |v6:11|) (* 20 |v17:0|)) ?x185) (* 18 |v8:9|))))
(let ((?x53 (- 15)))
(let ((?x503 (+ (+ (+ (* (- 12) |v5:12|) ?x498) (* ?x119 |v14:3|)) (* ?x69 |v11:6|))))
(let (($x615 (or (and (and (and (<= ?x503 ?x53) (<= ?x510 ?x88)) $x528) $x552) (and $x584 $x613))))
(let ((?x163 13))
(let ((?x490 (+ (+ (* (- 8) |v6:11|) (* ?x196 |v8:9|)) (* 18 |v13:4|))))
(let ((?x142 15))
(let ((?x246 (* ?x142 |v6:11|)))
(let ((?x484 (+ (+ (+ (* (- 17) |v6:11|) (* (- 6) |v16:1|)) ?x246) (* (- 13) |v13:4|))))
(let ((?x477 (+ (+ (+ (* (- 1) |v6:11|) (* ?x99 |v1:16|)) (* ?x205 |v6:11|)) (* (- 7) |v8:9|))))
(let ((?x202 (- 3)))
(let ((?x235 (- 7)))
(let ((?x236 (* ?x235 |v14:3|)))
(let ((?x470 (+ (+ (+ (* (- 19) |v10:7|) (* ?x80 |v0:17|)) ?x236) (* (- 17) |v8:9|))))
(let (($x494 (or (and (<= ?x470 ?x202) (<= ?x477 ?x88)) (or (<= ?x484 ?x99) (<= (+ ?x490 |v12:5|) ?x163)))))
(let ((?x461 20))
(let ((?x460 (+ (+ (+ (* ?x69 |v9:8|) |v6:11|) (* ?x119 |v10:7|)) (* (- 12) |v2:15|))))
(let ((?x103 (- 10)))
(let ((?x159 (- 1)))
(let ((?x160 (* ?x159 |v14:3|)))
(let ((?x452 (+ (+ (* (- 18) |v1:16|) (* 0 |v12:5|)) (* (- 19) |v4:13|))))
(let ((?x446 (+ (+ (+ (* (- 9) |v11:6|) (* ?x113 |v9:8|)) (* ?x32 |v2:15|)) (* (- 17) |v2:15|))))
(let (($x495 (and (or (<= ?x446 ?x119) (and (<= (+ ?x452 ?x160) ?x103) (<= ?x460 ?x461))) $x494)))
(let ((?x47 12))
(let ((?x435 (+ (+ (+ (* (- 9) |v9:8|) (* (- 18) |v15:2|)) |v12:5|) (* ?x65 |v4:13|))))
(let ((?x172 7))
(let ((?x426 (+ (+ (* 0 |v1:16|) (* ?x149 |v12:5|)) (* (- 17) |v10:7|))))
(let ((?x44 (- 13)))
(let ((?x276 (* ?x32 |v7:10|)))
(let ((?x420 (+ (+ (+ (* ?x172 |v4:13|) (* ?x202 |v17:0|)) (* (- 19) |v6:11|)) ?x276)))
(let ((?x154 (- 8)))
(let ((?x413 (+ (+ (+ (* ?x172 |v1:16|) (* ?x273 |v17:0|)) (* ?x10 |v10:7|)) (* ?x149 |v0:17|))))
(let (($x438 (and (or (<= ?x413 ?x154) (<= ?x420 ?x44)) (or (<= (+ ?x426 ?x427) ?x172) (<= ?x435 ?x47)))))
(let ((?x404 (+ (+ (+ (* ?x163 |v4:13|) (* 0 |v4:13|)) (* ?x14 |v13:4|)) (* ?x47 |v9:8|))))
(let ((?x396 (+ (+ (+ (* ?x99 |v11:6|) (* ?x53 |v5:12|)) (* ?x69 |v9:8|)) (* 19 |v1:16|))))
(let ((?x309 (- 9)))
(let ((?x388 (+ (+ (+ (* ?x113 |v3:14|) (* ?x47 |v2:15|)) (* (- 18) |v5:12|)) (* ?x113 |v10:7|))))
(let ((?x380 (+ (+ (+ (* ?x172 |v10:7|) (* ?x44 |v16:1|)) (* (- 18) |v12:5|)) (* ?x163 |v5:12|))))
(let (($x407 (or (and (<= ?x380 ?x163) (<= ?x388 ?x309)) (or (<= ?x396 ?x10) (<= ?x404 ?x202)))))
(let ((?x77 (- 12)))
(let ((?x368 (+ (+ (+ (* ?x10 |v7:10|) (* (- 19) |v3:14|)) (* ?x69 |v5:12|)) (* ?x19 |v6:11|))))
(let ((?x191 (* ?x10 |v4:13|)))
(let (($x360 (<= (+ (+ (+ (* ?x172 |v6:11|) (* ?x99 |v2:15|)) (* ?x69 |v4:13|)) ?x191) ?x196)))
(let ((?x243 18))
(let ((?x352 (+ (+ (+ ?x346 (* ?x44 |v7:10|)) (* ?x235 |v10:7|)) (* 8 |v7:10|))))
(let ((?x342 (+ (+ (+ (* ?x62 |v12:5|) (* ?x88 |v15:2|)) (* ?x119 |v8:9|)) (* ?x80 |v16:1|))))
(let ((?x325 6))
(let ((?x334 (+ (+ (+ (* ?x205 |v17:0|) (* ?x88 |v7:10|)) (* ?x235 |v2:15|)) (* ?x62 |v9:8|))))
(let ((?x324 (+ (+ (+ (* ?x14 |v0:17|) (* (- 17) |v16:1|)) (* ?x32 |v1:16|)) (* ?x142 |v15:2|))))
(let ((?x316 (+ (+ (+ (* ?x309 |v7:10|) (* ?x53 |v3:14|)) (* ?x10 |v10:7|)) (* ?x149 |v10:7|))))
(let (($x345 (or (or (<= ?x316 ?x119) (<= ?x324 ?x325)) (or (<= ?x334 ?x325) (<= ?x342 ?x159)))))
(let ((?x126 8))
(let ((?x303 (+ (+ (+ (* ?x44 |v9:8|) (* ?x88 |v13:4|)) (* ?x159 |v5:12|)) (* ?x32 |v14:3|))))
(let ((?x129 (- 18)))
(let ((?x295 (+ (+ (+ (* ?x99 |v7:10|) (* ?x142 |v17:0|)) (* ?x14 |v12:5|)) (* ?x172 |v14:3|))))
(let ((?x287 (+ (+ (+ (* (- 6) |v13:4|) (* ?x202 |v8:9|)) (* ?x129 |v11:6|)) (* ?x10 |v9:8|))))
(let (($x280 (<= (+ (+ (+ (* ?x77 |v12:5|) (* ?x273 |v13:4|)) ?x276) (* ?x19 |v14:3|)) ?x62)))
(let ((?x24 (- 19)))
(let ((?x268 (+ (+ (+ (* ?x119 |v4:13|) (* ?x149 |v12:5|)) (* ?x47 |v14:3|)) (* ?x19 |v1:16|))))
(let ((?x260 (+ (+ (+ (* ?x65 |v17:0|) (* ?x53 |v1:16|)) (* ?x47 |v16:1|)) (* ?x10 |v3:14|))))
(let ((?x27 (- 17)))
(let (($x252 (<= (+ (+ (+ (* ?x19 |v5:12|) ?x246) (* ?x19 |v7:10|)) (* ?x88 |v2:15|)) ?x27)))
(let ((?x242 (+ (+ (+ ?x236 (* 19 |v7:10|)) (* ?x77 |v12:5|)) (* ?x27 |v12:5|))))
(let (($x307 (and (and (and (<= ?x242 ?x243) $x252) (and (<= ?x260 ?x159) (<= ?x268 ?x24))) (or (or $x280 (<= ?x287 ?x99)) (and (<= ?x295 ?x129) (<= ?x303 ?x126))))))
(let ((?x93 (- 6)))
(let ((?x219 (* ?x93 |v16:1|)))
(let (($x221 (<= (+ (+ (+ (* ?x32 |v3:14|) (* ?x196 |v4:13|)) (* ?x149 |v8:9|)) ?x219) ?x88)))
(let (($x229 (and $x221 (<= (+ (+ (+ ?x222 ?x222) (* ?x129 |v13:4|)) (* ?x69 |v9:8|)) ?x172))))
(let ((?x211 (+ (+ (+ (* ?x202 |v13:4|) (* ?x205 |v9:8|)) (* ?x19 |v9:8|)) (* ?x62 |v13:4|))))
(let ((?x36 0))
(let (($x199 (<= (+ (+ (+ (* ?x24 |v12:5|) ?x191) (* ?x80 |v4:13|)) (* ?x196 |v10:7|)) ?x36)))
(let (($x187 (<= (+ (+ (+ (* ?x69 |v0:17|) (* ?x69 |v8:9|)) (* ?x99 |v1:16|)) ?x185) ?x88)))
(let ((?x176 (+ (+ (* 19 |v9:8|) (* ?x172 |v9:8|)) (* 19 |v12:5|))))
(let (($x166 (<= (+ (+ (+ (* ?x154 |v15:2|) (* ?x103 |v6:11|)) ?x160) (* ?x163 |v0:17|)) ?x149)))
(let ((?x151 (+ (+ (+ (* ?x142 |v0:17|) (* ?x44 |v11:6|)) (* ?x103 |v0:17|)) (* ?x149 |v11:6|))))
(let (($x189 (and (or (<= ?x151 ?x77) $x166) (or (<= (+ ?x176 (* ?x47 |v4:13|)) ?x62) $x187))))
(let (($x137 (<= (+ (+ (+ (* ?x103 |v8:9|) (* ?x119 |v2:15|)) |v15:2|) (* ?x24 |v16:1|)) ?x80)))
(let ((?x128 (+ (+ (+ (* ?x14 |v12:5|) (* ?x119 |v0:17|)) (* ?x14 |v15:2|)) (* ?x126 |v1:16|))))
(let ((?x112 (+ (+ (+ (* ?x99 |v0:17|) (* ?x103 |v10:7|)) (* ?x80 |v9:8|)) (* (- 11) |v5:12|))))
(let ((?x95 (+ (+ (+ (* ?x32 |v17:0|) (* ?x14 |v14:3|)) (* ?x88 |v16:1|)) (* ?x93 |v3:14|))))
(let ((?x79 (+ (+ (+ (* ?x69 |v8:9|) (* ?x27 |v7:10|)) (* ?x62 |v2:15|)) (* ?x77 |v14:3|))))
(let ((?x64 (+ (+ (+ (* ?x53 |v6:11|) (* ?x32 |v16:1|)) (* ?x10 |v2:15|)) (* ?x62 |v7:10|))))
(let ((?x46 (+ (+ (+ (* ?x32 |v1:16|) (* ?x36 |v0:17|)) (* ?x27 |v11:6|)) (* ?x44 |v17:0|))))
(let ((?x26 (+ (+ (+ (* ?x10 |v8:9|) (* ?x14 |v7:10|)) (* ?x19 |v12:5|)) (* ?x24 |v5:12|))))
(let (($x83 (or (and (<= ?x26 ?x27) (<= ?x46 ?x47)) (and (<= ?x64 ?x65) (<= ?x79 ?x80)))))
(let (($x140 (and $x83 (or (or (<= ?x95 ?x27) (<= ?x112 ?x113)) (and (<= ?x128 ?x129) $x137)))))
(let (($x373 (and (and $x140 (or $x189 (and (or $x199 (<= ?x211 ?x10)) $x229))) (or $x307 (or $x345 (or (or (<= ?x352 ?x243) $x360) (<= ?x368 ?x77)))))))
(or $x373 (or (and (or $x407 $x438) $x495) $x615)))))))))))))))))))))))))))))))))))))))))))))))))))))))))))))))))))))))))))))))))))))))))))))))))))))))))))))))))))))))))))))))))))
)
)
)
)
)
)
)
)
)
)
)
)
)
)
)
)
)
)
(check-sat)
(exit)

